; benchmark generated from python API
(set-info :status unknown)
(declare-datatypes ((RealState 0)) (((RMk1 (rval1 Real)) (RMk2 (rval2 Real)))))
 (assert
 (forall ((|v17:0| Real) )(forall ((|v16:1| Real) )(forall ((|v15:2| Real) )(forall ((|v14:3| Real) )(forall ((|v13:4| Real) )(forall ((|v12:5| Real) )(exists ((|v11:6_st| RealState) (val!9876 Real) )(exists ((|v10:7_st| RealState) (val!9877 Real) )(exists ((|v9:8_st| RealState) (val!9878 Real) )(exists ((|v8:9_st| RealState) (val!9879 Real) )(exists ((|v7:10_st| RealState) (val!9880 Real) )(exists ((|v6:11_st| RealState) (val!9881 Real) )(forall ((|v5:12| Real) )(forall ((|v4:13| Real) )(forall ((|v3:14| Real) )(forall ((|v2:15| Real) )(forall ((|v1:16| Real) )(forall ((|v0:17| Real) )(let ((?x6828 (- 8.0)))
 (let ((?x7188 (* ?x6828 |v2:15|)))
 (let ((?x6937 (- 19.0)))
 (let ((?x7258 (* ?x6937 |v5:12|)))
 (let ((?x7054 (rval2 |v8:9_st|)))
 (let ((?x7535 (* 15.0 ?x7054)))
 (let ((?x7172 (- 10.0)))
 (let ((?x4154 (* ?x7172 |v2:15|)))
 (let ((?x1907 (+ (+ (+ (* (- 14.0) |v1:16|) (* 4.0 (rval2 |v10:7_st|))) (* 6.0 ?x7054)) ?x4154)))
 (let ((?x856 (- 5.0)))
 (let ((?x6528 (rval2 |v7:10_st|)))
 (let ((?x5615 (* 3.0 ?x6528)))
 (let ((?x5750 (- 1.0)))
 (let ((?x7507 (* ?x5750 |v4:13|)))
 (let ((?x7237 (+ (+ (+ (* (- 3.0) |v15:2|) (* 2.0 (rval2 |v6:11_st|))) (* 10.0 ?x7054)) ?x7507)))
 (let (($x9389 (<= (+ (+ (+ ?x7237 (* (- 7.0) (rval2 |v6:11_st|))) ?x5615) (* ?x7172 ?x6528)) ?x856)))
 (let ((?x2563 (- 15.0)))
 (let ((?x1633 (* 9.0 |v4:13|)))
 (let ((?x7112 (rval2 |v11:6_st|)))
 (let ((?x498 (* 11.0 ?x7112)))
 (let ((?x2406 (* ?x7172 |v16:1|)))
 (let ((?x200 (+ (+ (+ (+ (rval2 |v9:8_st|) (* ?x7172 |v15:2|)) (* 4.0 |v5:12|)) ?x2406) (* (- 12.0) |v13:4|))))
 (let (($x772 (and (<= (+ (+ ?x200 ?x498) ?x1633) ?x2563) (or $x9389 (<= (+ (+ (+ ?x1907 ?x7535) ?x7258) ?x7188) 19.0)))))
 (let ((?x790 (* 2.0 ?x6528)))
 (let ((?x396 (+ (+ (+ (+ (* 13.0 ?x6528) (* (- 14.0) |v5:12|)) ?x7258) ?x790) (* ?x5750 (rval2 |v6:11_st|)))))
 (let ((?x6807 (* 0.0 |v4:13|)))
 (let ((?x7369 (- 20.0)))
 (let ((?x6952 (* ?x7369 |v4:13|)))
 (let ((?x2579 (- 12.0)))
 (let ((?x8015 (* ?x2579 |v2:15|)))
 (let ((?x8954 (* 13.0 |v1:16|)))
 (let ((?x6136 (+ (+ (+ (* 12.0 |v16:1|) (* (- 6.0) |v3:14|)) (* 7.0 |v1:16|)) ?x8954)))
 (let (($x4725 (and (<= (+ (+ (+ ?x6136 ?x8015) ?x6952) ?x6807) 11.0) (<= (+ (+ ?x396 (* (- 18.0) |v15:2|)) (* ?x6828 (rval2 |v9:8_st|))) 20.0))))
 (let ((?x2367 (- 14.0)))
 (let ((?x7108 (- 16.0)))
 (let ((?x8970 (* ?x7108 |v17:0|)))
 (let ((?x7818 (* 2.0 |v12:5|)))
 (let ((?x3398 (- 17.0)))
 (let ((?x3622 (* ?x3398 |v16:1|)))
 (let ((?x8567 (* 3.0 ?x7112)))
 (let ((?x7083 (+ (+ (+ (+ (+ ?x3622 (* ?x7172 (rval2 |v6:11_st|))) (* ?x2579 ?x6528)) ?x8567) ?x3622) ?x7818)))
 (let ((?x8130 (- 6.0)))
 (let ((?x3968 (* ?x8130 |v4:13|)))
 (let ((?x9137 (* ?x6828 |v15:2|)))
 (let ((?x8338 (+ (+ (+ (* 15.0 ?x6528) (* 10.0 |v0:17|)) (* 9.0 |v2:15|)) (* (- 13.0) |v13:4|))))
 (let (($x5058 (or (<= (+ (+ (+ ?x8338 ?x9137) (* ?x3398 (rval2 |v9:8_st|))) ?x3968) 3.0) (<= (+ ?x7083 ?x8970) ?x2367))))
 (let ((?x9102 (- 9.0)))
 (let ((?x336 (* 17.0 |v1:16|)))
 (let ((?x6152 (- 11.0)))
 (let ((?x5825 (* ?x6152 |v1:16|)))
 (let ((?x3503 (* 8.0 ?x6528)))
 (let ((?x4560 (* 16.0 |v15:2|)))
 (let ((?x3088 (+ (+ (* 0.0 |v3:14|) (* 5.0 |v0:17|)) (* ?x2367 |v3:14|))))
 (let ((?x4934 (- 4.0)))
 (let ((?x9214 (* 6.0 ?x7054)))
 (let ((?x3426 (* ?x856 |v16:1|)))
 (let ((?x2014 (rval2 |v6:11_st|)))
 (let ((?x659 (* 11.0 ?x2014)))
 (let ((?x8637 (+ (+ (+ (+ (+ (* ?x7108 ?x2014) (* 16.0 |v3:14|)) ?x659) ?x3426) ?x9214) (* ?x6828 ?x6528))))
 (let (($x2634 (and (<= (+ ?x8637 |v3:14|) ?x4934) (<= (+ (+ (+ (+ ?x3088 ?x4560) ?x3503) ?x5825) ?x336) ?x9102))))
 (let ((?x6401 (rval2 |v9:8_st|)))
 (let ((?x9332 (* ?x4934 ?x6401)))
 (let ((?x884 (* 13.0 |v17:0|)))
 (let ((?x6535 (* ?x3398 |v2:15|)))
 (let ((?x17 (* ?x7108 |v5:12|)))
 (let ((?x9205 (+ (+ (+ (+ (* 16.0 |v2:15|) (* 7.0 ?x2014)) (* ?x8130 ?x6528)) ?x17) ?x6535)))
 (let ((?x1019 (* ?x9102 ?x6401)))
 (let ((?x7622 (* 12.0 |v16:1|)))
 (let ((?x4657 (* 10.0 ?x6528)))
 (let ((?x1942 (* 5.0 |v16:1|)))
 (let ((?x8975 (+ (+ (+ (+ (* (- 13.0) |v2:15|) (* 15.0 ?x6401)) (* ?x7172 ?x7054)) ?x1942) ?x4657)))
 (let (($x6586 (and (<= (+ (+ ?x8975 ?x7622) ?x1019) ?x2563) (<= (+ (+ ?x9205 ?x884) ?x9332) 10.0))))
 (let ((?x5079 (* ?x2563 ?x2014)))
 (let ((?x5399 (* 16.0 |v3:14|)))
 (let ((?x5395 (+ (+ (+ (* (- 2.0) |v3:14|) (* 17.0 |v4:13|)) (* (- 13.0) |v2:15|)) ?x5399)))
 (let ((?x1112 (* ?x6937 |v16:1|)))
 (let ((?x9404 (* 9.0 ?x7112)))
 (let ((?x7845 (rval2 |v10:7_st|)))
 (let ((?x5240 (* 5.0 ?x7845)))
 (let ((?x5646 (* ?x4934 |v13:4|)))
 (let ((?x6196 (+ (+ (+ (+ (* ?x9102 |v16:1|) (* ?x2579 ?x7845)) (* 2.0 |v0:17|)) ?x5646) ?x5240)))
 (let (($x1490 (or (<= (+ (+ ?x6196 ?x9404) ?x1112) ?x7172) (<= (+ (+ (+ ?x5395 |v14:3|) (* ?x2579 ?x2014)) ?x5079) 5.0))))
 (let ((?x2411 (* ?x3398 ?x7845)))
 (let ((?x7368 (* ?x7172 |v17:0|)))
 (let ((?x7801 (* ?x8130 ?x7845)))
 (let ((?x686 (+ (+ (+ (+ (* 18.0 |v14:3|) (* (- 3.0) ?x7112)) (* ?x2579 ?x6401)) ?x7801) ?x7368)))
 (let (($x2374 (or (and (<= (+ (+ ?x686 ?x2411) (* 0.0 |v16:1|)) ?x7108) $x1490) (or $x6586 $x2634))))
 (let ((?x8846 (- 18.0)))
 (let ((?x4133 (* ?x8846 |v2:15|)))
 (let ((?x1113 (* ?x7108 ?x2014)))
 (let ((?x4482 (+ (+ (+ (+ (* ?x8130 |v3:14|) (* 16.0 |v14:3|)) (* 19.0 ?x6528)) |v1:16|) ?x1113)))
 (let ((?x2881 (* 4.0 |v0:17|)))
 (let ((?x6825 (* 11.0 |v0:17|)))
 (let ((?x4281 (* 8.0 ?x6401)))
 (let ((?x2453 (+ (+ (+ (+ (* 18.0 |v4:13|) ?x7507) (* ?x2367 |v1:16|)) (* ?x7108 ?x7112)) ?x4281)))
 (let (($x6230 (and (<= (+ (+ ?x2453 ?x6825) ?x2881) 18.0) (<= (+ (+ ?x4482 ?x4133) (* (- 3.0) |v13:4|)) 8.0))))
 (let ((?x3803 (* 12.0 ?x6401)))
 (let ((?x8712 (* 13.0 |v12:5|)))
 (let ((?x5489 (* 6.0 |v15:2|)))
 (let ((?x3081 (- 13.0)))
 (let ((?x8241 (* ?x3081 |v12:5|)))
 (let ((?x8818 (+ (+ (+ (+ (* 3.0 |v4:13|) (* 4.0 ?x6528)) (* 11.0 ?x6528)) ?x8241) ?x5489)))
 (let ((?x832 (* ?x6152 ?x7054)))
 (let ((?x7830 (* ?x7369 |v2:15|)))
 (let ((?x7714 (+ (+ (+ (* ?x6828 ?x2014) (* 9.0 |v5:12|)) (* 0.0 |v13:4|)) (* 12.0 ?x7845))))
 (let (($x5125 (or (<= (+ (+ (+ ?x7714 (* 9.0 |v15:2|)) ?x7830) ?x832) 7.0) (<= (+ (+ ?x8818 ?x8712) ?x3803) 6.0))))
 (let ((?x8076 (- 7.0)))
 (let ((?x6913 (* 11.0 |v13:4|)))
 (let ((?x7204 (* 14.0 |v1:16|)))
 (let ((?x5752 (+ (+ (+ (+ (* 7.0 |v15:2|) (* 18.0 ?x2014)) (* 9.0 |v12:5|)) ?x7204) ?x6913)))
 (let ((?x6710 (* ?x6152 |v5:12|)))
 (let ((?x4790 (+ (+ (+ (+ (* ?x7369 |v0:17|) (* ?x7108 ?x6528)) (* ?x2579 ?x7054)) ?x6710) ?x9214)))
 (let (($x2764 (or (<= (+ (+ ?x4790 ?x2406) |v2:15|) ?x6152) (<= (+ (+ ?x5752 |v14:3|) (* 3.0 ?x2014)) ?x8076))))
 (let ((?x5357 (* ?x8076 |v5:12|)))
 (let ((?x70 (* 20.0 |v3:14|)))
 (let ((?x3077 (+ (+ (+ (+ (+ (* ?x2563 |v15:2|) |v4:13|) (* ?x2579 |v1:16|)) ?x3426) ?x70) ?x5357)))
 (let ((?x8883 (* 4.0 |v12:5|)))
 (let ((?x6168 (* ?x2579 |v4:13|)))
 (let ((?x4592 (* 6.0 ?x6401)))
 (let ((?x3337 (+ (+ (+ (+ ?x7801 (* 0.0 |v12:5|)) (* 0.0 ?x2014)) (* ?x6937 |v15:2|)) ?x4592)))
 (let (($x2601 (or (or (<= (+ (+ ?x3337 ?x6168) ?x8883) 12.0) (<= (+ ?x3077 ?x4657) ?x9102)) $x2764)))
 (let ((?x1343 (* ?x856 ?x7054)))
 (let ((?x7671 (* ?x7369 |v0:17|)))
 (let ((?x5723 (* 9.0 |v1:16|)))
 (let ((?x464 (* ?x6152 |v12:5|)))
 (let ((?x54 (+ (+ (+ (* (- 3.0) |v2:15|) (* (- 2.0) |v17:0|)) (* 2.0 |v2:15|)) ?x464)))
 (let ((?x6972 (* 14.0 ?x2014)))
 (let ((?x3582 (* 4.0 |v16:1|)))
 (let ((?x5778 (* ?x3081 |v5:12|)))
 (let ((?x4562 (+ (+ (+ (* 4.0 |v2:15|) (* ?x7172 |v15:2|)) (* ?x8846 ?x2014)) (* ?x8076 |v13:4|))))
 (let (($x1111 (and (<= (+ (+ (+ ?x4562 ?x5778) ?x3582) ?x6972) 0.0) (<= (+ (+ (+ ?x54 ?x5723) ?x7671) ?x1343) ?x2563))))
 (let ((?x6015 (- 2.0)))
 (let ((?x2626 (* ?x6015 |v17:0|)))
 (let ((?x6148 (* ?x9102 ?x7112)))
 (let ((?x2065 (* 15.0 |v0:17|)))
 (let ((?x8737 (+ (+ (+ (+ (* 13.0 |v16:1|) (* ?x2579 |v15:2|)) (* (- 3.0) |v12:5|)) ?x2065) (* ?x5750 ?x7112))))
 (let ((?x5473 (* 9.0 |v17:0|)))
 (let ((?x5276 (* 5.0 |v0:17|)))
 (let ((?x8427 (+ (+ (+ (+ ?x498 (* 12.0 ?x2014)) (* 19.0 |v2:15|)) (* ?x8846 ?x6401)) ?x5276)))
 (let (($x5969 (and (<= (+ (+ ?x8427 (* 12.0 |v17:0|)) ?x5473) ?x2367) (<= (+ (+ ?x8737 ?x6148) ?x2626) ?x7108))))
 (let ((?x8331 (* 7.0 ?x7845)))
 (let ((?x3164 (* ?x2579 ?x7845)))
 (let ((?x4028 (+ (+ (+ (+ (* 2.0 |v2:15|) (* ?x856 ?x6401)) (* 20.0 |v4:13|)) ?x3164) (* 4.0 ?x6401))))
 (let ((?x6748 (* 14.0 ?x7845)))
 (let ((?x9049 (* ?x6015 ?x7112)))
 (let ((?x4747 (* 20.0 |v0:17|)))
 (let ((?x1026 (+ (+ (+ (+ (* 8.0 ?x2014) (* 8.0 |v2:15|)) (* ?x6015 ?x6528)) ?x6535) ?x4747)))
 (let (($x1235 (or (<= (+ (+ ?x1026 ?x9049) ?x6748) 17.0) (<= (+ (+ ?x4028 (* (- 3.0) |v14:3|)) ?x8331) 16.0))))
 (let ((?x8105 (* 18.0 ?x6528)))
 (let ((?x7766 (* 18.0 |v14:3|)))
 (let ((?x1062 (* ?x7172 |v1:16|)))
 (let ((?x943 (+ (+ (+ (+ (* 0.0 ?x7845) (* 7.0 ?x7112)) (* 7.0 |v17:0|)) ?x1062) ?x7766)))
 (let ((?x8494 (* ?x6152 ?x7112)))
 (let ((?x6278 (* 4.0 |v2:15|)))
 (let ((?x1175 (+ (+ (+ (+ (+ ?x7535 (* ?x5750 ?x7054)) ?x1343) (* 5.0 ?x7054)) ?x6278) ?x8494)))
 (let (($x634 (and (<= (+ ?x1175 (* 18.0 ?x7112)) 4.0) (<= (+ (+ ?x943 ?x8105) ?x2411) 10.0))))
 (let (($x2170 (or (and (or (and $x634 $x1235) (or $x5969 $x1111)) (or $x2601 (and $x5125 $x6230))) (and $x2374 (and (or $x5058 $x4725) $x772)))))
 (let ((?x7965 (* ?x6828 |v17:0|)))
 (let ((?x4443 (* ?x6015 |v4:13|)))
 (let ((?x8306 (* ?x2367 ?x6401)))
 (let ((?x7344 (* 16.0 |v13:4|)))
 (let ((?x6577 (+ (+ (+ (+ (* 15.0 |v4:13|) (* ?x5750 ?x7845)) (* ?x6015 ?x6401)) ?x7344) ?x8306)))
 (let ((?x6019 (* ?x7172 |v13:4|)))
 (let ((?x5943 (* 5.0 |v12:5|)))
 (let ((?x4795 (+ (+ (+ (+ (+ ?x7830 ?x7258) (* 18.0 |v5:12|)) (* 13.0 |v15:2|)) ?x5943) ?x6019)))
 (let ((?x9355 (* ?x2563 |v15:2|)))
 (let ((?x4004 (* ?x2579 ?x6401)))
 (let ((?x5219 (* 19.0 |v0:17|)))
 (let ((?x6357 (+ (+ (+ (+ (* ?x7369 ?x6528) (* 9.0 |v0:17|)) (* ?x6937 |v0:17|)) ?x5219) (* ?x3081 ?x7112))))
 (let (($x6691 (or (<= (+ (+ ?x6357 ?x4004) ?x9355) ?x8076) (<= (+ ?x4795 (* 15.0 |v16:1|)) 19.0))))
 (let ((?x6845 (* 4.0 |v3:14|)))
 (let ((?x5630 (* 13.0 ?x6528)))
 (let ((?x8541 (* ?x7369 ?x6528)))
 (let ((?x5413 (* ?x9102 |v14:3|)))
 (let ((?x8985 (+ (+ (+ (+ (* ?x3081 ?x7054) (* 2.0 ?x7845)) (* 10.0 |v12:5|)) ?x5413) ?x8541)))
 (let ((?x5332 (* ?x2579 |v15:2|)))
 (let ((?x4838 (* 3.0 |v2:15|)))
 (let ((?x1944 (+ (+ (+ (+ (* 7.0 |v4:13|) (* ?x6015 |v5:12|)) (* ?x3398 |v0:17|)) ?x5332) ?x4838)))
 (let (($x6851 (or (<= (+ (+ ?x1944 ?x2626) ?x5332) ?x3081) (<= (+ (+ ?x8985 ?x5630) ?x6845) 6.0))))
 (let ((?x2840 (* 16.0 |v4:13|)))
 (let ((?x3806 (* 9.0 |v5:12|)))
 (let ((?x7926 (+ (+ (+ (+ (* 3.0 |v12:5|) (* ?x3081 |v15:2|)) (* ?x2367 |v4:13|)) ?x3806) ?x2840)))
 (let ((?x2364 (- 3.0)))
 (let ((?x737 (* ?x2364 ?x7112)))
 (let ((?x2439 (* 3.0 |v16:1|)))
 (let ((?x1243 (+ (+ (+ (+ (* 10.0 |v1:16|) ?x4443) (* ?x8846 |v1:16|)) (* ?x5750 ?x7845)) (* ?x7108 |v13:4|))))
 (let (($x6856 (and (<= (+ (+ ?x1243 ?x2439) ?x737) ?x8130) (<= (+ (+ ?x7926 ?x3622) ?x5646) 1.0))))
 (let ((?x4452 (* ?x2579 |v1:16|)))
 (let ((?x3198 (* ?x8846 |v17:0|)))
 (let ((?x553 (+ (+ (+ (+ (* ?x7172 ?x7845) (* 15.0 ?x2014)) ?x9049) (* 16.0 |v0:17|)) ?x3198)))
 (let (($x4584 (and (<= (+ (+ ?x553 ?x2881) ?x4452) 16.0) (or (or $x6856 $x6851) (or $x6691 (<= (+ (+ ?x6577 ?x4443) ?x7965) 17.0))))))
 (let ((?x996 (* ?x3081 |v16:1|)))
 (let ((?x1220 (+ (+ (+ (+ (* 8.0 |v17:0|) ?x8306) (* 10.0 |v2:15|)) (* 0.0 ?x7054)) ?x996)))
 (let ((?x3257 (* 4.0 |v4:13|)))
 (let ((?x3710 (* 15.0 ?x7845)))
 (let ((?x5031 (+ (+ (+ (+ (* 0.0 |v3:14|) (* ?x8076 |v3:14|)) (* ?x8846 |v12:5|)) ?x3710) ?x3257)))
 (let (($x728 (and (<= (+ (+ ?x5031 (* ?x8076 |v14:3|)) (* ?x7108 ?x7054)) 9.0) (<= (+ (+ ?x1220 ?x5473) ?x498) ?x3398))))
 (let ((?x35 (* 14.0 ?x6401)))
 (let ((?x720 (+ (+ (+ (* ?x8130 |v1:16|) (* ?x7108 |v0:17|)) (* ?x6828 |v4:13|)) ?x7204)))
 (let ((?x5253 (* 14.0 ?x6528)))
 (let ((?x5074 (* 18.0 ?x7054)))
 (let ((?x7996 (* ?x6828 |v4:13|)))
 (let ((?x2950 (+ (+ (+ (+ ?x6825 (* ?x6015 |v15:2|)) (* 8.0 |v3:14|)) (* 7.0 ?x7112)) ?x7996)))
 (let (($x4397 (or (<= (+ (+ ?x2950 ?x5074) ?x5253) 7.0) (<= (+ (+ (+ ?x720 (* ?x2579 |v17:0|)) (* ?x2367 ?x6528)) ?x35) ?x6152))))
 (let ((?x2029 (* ?x7172 ?x7112)))
 (let ((?x7770 (* 10.0 |v14:3|)))
 (let ((?x6850 (* 10.0 |v12:5|)))
 (let ((?x3073 (+ (+ (+ (+ (* 20.0 ?x7845) (* ?x2364 |v1:16|)) (* ?x3081 |v0:17|)) ?x6850) ?x7770)))
 (let ((?x4404 (* 12.0 |v3:14|)))
 (let ((?x5476 (+ (+ (+ (+ (+ (* ?x3081 |v4:13|) ?x2439) ?x1113) (* 2.0 |v16:1|)) ?x4404) ?x9355)))
 (let (($x545 (or (<= (+ ?x5476 (* 6.0 ?x7112)) 2.0) (<= (+ (+ ?x3073 (* 15.0 ?x7112)) ?x2029) ?x3398))))
 (let ((?x8651 (* 8.0 |v4:13|)))
 (let ((?x267 (* 16.0 ?x7112)))
 (let ((?x4630 (* ?x3081 |v17:0|)))
 (let ((?x1109 (+ (+ (+ (+ (* 4.0 ?x7845) (* ?x8076 ?x6528)) (* ?x8846 |v0:17|)) ?x4630) ?x6845)))
 (let ((?x8115 (+ (+ (+ (+ (* 16.0 |v12:5|) ?x5276) (* 20.0 |v14:3|)) (* ?x2563 |v16:1|)) (* ?x7369 ?x7112))))
 (let (($x5003 (or (<= (+ (+ ?x8115 ?x832) (* ?x8130 |v16:1|)) 3.0) (<= (+ (+ ?x1109 ?x267) ?x8651) 3.0))))
 (let ((?x8106 (* ?x2367 |v12:5|)))
 (let ((?x2649 (* 2.0 |v3:14|)))
 (let ((?x8438 (* ?x7369 ?x7845)))
 (let ((?x4149 (+ (+ (+ (+ (* 9.0 |v14:3|) (* ?x2364 |v2:15|)) (* 12.0 |v2:15|)) ?x8438) ?x2649)))
 (let ((?x6977 (* ?x8130 |v5:12|)))
 (let ((?x8154 (* 17.0 |v16:1|)))
 (let ((?x5141 (+ (+ (+ (+ (* 8.0 |v1:16|) (* 0.0 ?x7845)) (* ?x8846 |v14:3|)) ?x8154) (* ?x5750 ?x6528))))
 (let ((?x280 (* 4.0 ?x7054)))
 (let ((?x4603 (+ (+ (+ (+ (* 13.0 |v2:15|) (* 11.0 |v12:5|)) (* 12.0 ?x6528)) ?x3257) ?x280)))
 (let ((?x5645 (* 16.0 ?x2014)))
 (let ((?x5978 (+ (+ (+ (+ ?x1112 (* ?x7108 |v3:14|)) (* ?x2364 |v4:13|)) ?x4657) (* ?x6828 |v14:3|))))
 (let (($x442 (or (<= (+ (+ ?x5978 ?x5645) (* 9.0 ?x2014)) 4.0) (<= (+ (+ ?x4603 ?x4133) ?x7622) ?x2367))))
 (let (($x749 (or (or $x442 (<= (+ (+ ?x5141 (* 15.0 |v12:5|)) ?x6977) 16.0)) (<= (+ (+ ?x4149 ?x9049) ?x8106) ?x5750))))
 (let ((?x2072 (* 7.0 |v0:17|)))
 (let ((?x7115 (* ?x5750 |v5:12|)))
 (let ((?x3886 (* ?x8846 |v1:16|)))
 (let ((?x8981 (+ (+ (+ (+ (* 17.0 ?x7845) (* ?x2367 |v5:12|)) (* ?x2364 ?x6528)) ?x3886) |v0:17|)))
 (let ((?x6451 (* ?x8846 |v3:14|)))
 (let ((?x4086 (+ (+ (+ (+ (+ ?x280 ?x8712) (* 7.0 |v12:5|)) ?x5630) (* 6.0 |v4:13|)) ?x6451)))
 (let (($x6215 (or (<= (+ ?x4086 (* 14.0 |v15:2|)) ?x3398) (<= (+ (+ ?x8981 ?x7115) ?x2072) 20.0))))
 (let ((?x7284 (* ?x3081 |v2:15|)))
 (let ((?x365 (+ (+ (+ (+ (* ?x2364 ?x7054) ?x6748) (* ?x4934 |v16:1|)) (* 0.0 |v2:15|)) (* 6.0 ?x7845))))
 (let ((?x1979 (* ?x7108 |v1:16|)))
 (let ((?x4349 (* 4.0 |v5:12|)))
 (let ((?x1254 (+ (+ (* 10.0 |v5:12|) (* 0.0 |v0:17|)) ?x4349)))
 (let (($x6404 (and (<= (+ (+ (+ (+ ?x1254 (* 0.0 ?x6401)) ?x7996) ?x7996) ?x1979) ?x3398) (<= (+ (+ ?x365 ?x8438) ?x7284) 13.0))))
 (let ((?x1160 (* ?x856 |v4:13|)))
 (let ((?x9019 (* 16.0 ?x7845)))
 (let ((?x3704 (* 13.0 |v15:2|)))
 (let ((?x2261 (+ (+ (+ (+ (+ ?x2029 (* 16.0 |v2:15|)) (* 17.0 |v13:4|)) ?x6850) ?x3704) ?x9019)))
 (let ((?x976 (* ?x9102 |v3:14|)))
 (let ((?x8117 (* ?x3081 ?x7054)))
 (let ((?x5518 (* 0.0 |v0:17|)))
 (let ((?x3901 (+ (+ (+ (+ (+ ?x8494 (* ?x5750 |v14:3|)) ?x8712) (* ?x7108 |v0:17|)) ?x5518) ?x8117)))
 (let ((?x950 (+ (+ (+ (+ (+ (* 0.0 |v13:4|) ?x832) ?x8494) ?x3426) (* 13.0 ?x7054)) (* ?x6937 ?x7845))))
 (let ((?x2401 (* ?x6015 ?x6401)))
 (let ((?x5278 (* 0.0 ?x6528)))
 (let ((?x2244 (* ?x7369 |v12:5|)))
 (let ((?x1731 (+ (+ (+ (+ (* 9.0 ?x6401) (* ?x6937 ?x2014)) (* ?x3398 ?x7054)) ?x2244) ?x5278)))
 (let (($x145 (or (<= (+ (+ ?x1731 (* ?x5750 |v15:2|)) ?x2401) ?x2364) (<= (+ ?x950 ?x996) 6.0))))
 (let (($x5703 (and $x145 (and (<= (+ ?x3901 ?x976) 0.0) (<= (+ ?x2261 ?x1160) 2.0)))))
 (let ((?x7004 (* 7.0 ?x2014)))
 (let ((?x6308 (* ?x8846 ?x7054)))
 (let ((?x2837 (* 12.0 |v4:13|)))
 (let ((?x1916 (+ (+ (+ (+ (* 9.0 ?x7054) (* 18.0 |v5:12|)) (* ?x7172 |v0:17|)) ?x2837) ?x5825)))
 (let ((?x3385 (* 11.0 ?x7054)))
 (let ((?x436 (* 17.0 ?x7054)))
 (let ((?x4031 (+ (+ (+ (+ ?x4630 (* 19.0 |v17:0|)) (* 11.0 |v17:0|)) (* ?x3398 |v13:4|)) ?x436)))
 (let ((?x3628 (* 14.0 |v13:4|)))
 (let ((?x2028 (* ?x3081 |v3:14|)))
 (let ((?x7274 (* ?x7369 |v17:0|)))
 (let ((?x1015 (+ (+ (+ (+ (* 5.0 ?x7054) ?x1343) (* 18.0 |v3:14|)) (* ?x7369 |v3:14|)) ?x7274)))
 (let (($x4637 (and (<= (+ (+ ?x1015 ?x2028) ?x3628) 19.0) (<= (+ (+ ?x4031 ?x3385) ?x2244) 19.0))))
 (let ((?x2417 (* 6.0 |v1:16|)))
 (let ((?x823 (* 10.0 ?x7054)))
 (let ((?x847 (* ?x6828 |v1:16|)))
 (let ((?x8956 (+ (+ (+ (+ (+ ?x5079 (* 6.0 |v17:0|)) (* 6.0 ?x6528)) ?x5489) ?x847) ?x823)))
 (let ((?x4277 (* ?x8076 |v1:16|)))
 (let ((?x7979 (* ?x8846 |v13:4|)))
 (let ((?x2461 (+ (+ (+ (+ (* ?x9102 ?x6528) (* ?x2367 |v0:17|)) (* 11.0 |v3:14|)) ?x7979) ?x4277)))
 (let (($x628 (or (<= (+ (+ ?x2461 (* ?x2579 |v14:3|)) (* 7.0 ?x6401)) ?x3081) (<= (+ ?x8956 ?x2417) 5.0))))
 (let ((?x577 (* ?x8846 |v12:5|)))
 (let ((?x6476 (* ?x8130 |v2:15|)))
 (let ((?x525 (* ?x2563 |v13:4|)))
 (let ((?x7934 (+ (+ (+ (+ (* ?x8130 |v15:2|) (* 14.0 |v4:13|)) (* ?x6937 ?x6528)) ?x525) ?x6476)))
 (let ((?x4134 (* ?x8130 ?x6528)))
 (let ((?x8861 (+ (+ (+ (+ ?x2417 (* 12.0 ?x2014)) (* ?x8076 |v4:13|)) (* ?x7172 |v5:12|)) ?x4134)))
 (let (($x1253 (and (<= (+ (+ ?x8861 (* ?x6015 ?x7054)) (* ?x6828 |v16:1|)) 8.0) (<= (+ (+ ?x7934 ?x577) (* 5.0 |v17:0|)) ?x8076))))
 (let ((?x4170 (+ (+ (+ (+ (* 8.0 ?x7112) (* 20.0 ?x2014)) ?x525) (* 10.0 ?x2014)) ?x7979)))
 (let ((?x401 (+ (+ (+ (+ (+ ?x7054 (* 9.0 ?x7054)) ?x2244) (* 8.0 ?x7112)) ?x7284) ?x7965)))
 (let (($x1306 (and (<= (+ ?x401 ?x5278) ?x7369) (<= (+ (+ ?x4170 ?x7535) (* ?x7108 |v15:2|)) 7.0))))
 (let ((?x1994 (* ?x6828 |v3:14|)))
 (let ((?x857 (+ (+ (+ (+ (+ (* ?x6937 |v4:13|) ?x1062) ?x9214) (* 19.0 ?x7054)) ?x1994) (* ?x8076 |v16:1|))))
 (let ((?x1881 (+ (+ (+ (+ (+ (* ?x2367 |v15:2|) (* 9.0 |v16:1|)) ?x4277) ?x8494) ?x5723) (* 5.0 |v13:4|))))
 (let ((?x3474 (* ?x9102 |v16:1|)))
 (let ((?x6452 (* ?x8130 |v0:17|)))
 (let ((?x8402 (+ (+ (+ (+ (+ ?x6308 ?x1942) (* ?x2579 |v5:12|)) (* ?x2364 |v0:17|)) ?x6452) ?x3474)))
 (let ((?x7245 (* 8.0 |v1:16|)))
 (let ((?x1162 (+ (+ (+ (+ (+ ?x280 ?x6148) (* ?x2364 |v3:14|)) (* ?x2579 |v0:17|)) |v4:13|) ?x7245)))
 (let (($x4190 (or (or (<= (+ ?x1162 ?x4443) 0.0) (<= (+ ?x8402 ?x8954) 11.0)) (or (<= (+ ?x1881 ?x3628) 7.0) (<= (+ ?x857 ?x790) ?x8076)))))
 (let ((?x6390 (* ?x2563 |v2:15|)))
 (let ((?x5171 (+ (+ (+ (+ (+ (* ?x2563 ?x7112) (* 15.0 ?x2014)) ?x7284) ?x8712) ?x6390) ?x823)))
 (let ((?x1547 (* ?x8846 |v14:3|)))
 (let ((?x1592 (+ (+ (+ (+ (* 12.0 |v13:4|) (* 13.0 |v13:4|)) ?x6710) (* 13.0 |v3:14|)) ?x8306)))
 (let ((?x3488 (* 17.0 ?x6401)))
 (let ((?x3797 (* 12.0 |v13:4|)))
 (let ((?x2139 (* 17.0 ?x6528)))
 (let ((?x9364 (+ (+ (+ (+ (* ?x5750 |v17:0|) ?x3710) (* 20.0 |v13:4|)) (* ?x8076 |v2:15|)) ?x2139)))
 (let ((?x7668 (* 20.0 |v14:3|)))
 (let ((?x4650 (* ?x9102 |v13:4|)))
 (let ((?x9326 (+ (+ (+ (+ ?x3488 (* ?x2579 |v12:5|)) ?x3198) (* ?x856 |v5:12|)) (* 2.0 |v14:3|))))
 (let (($x1555 (and (<= (+ (+ ?x9326 ?x4650) ?x7668) ?x3398) (<= (+ (+ ?x9364 ?x3797) ?x3488) ?x3398))))
 (let (($x2814 (or $x1555 (and (<= (+ (+ ?x1592 ?x1113) ?x1547) ?x9102) (<= (+ ?x5171 ?x7507) ?x5750)))))
 (let (($x5934 (and (and (or $x2814 $x4190) (or (or $x1306 $x1253) (or $x628 $x4637))) (or (<= (+ (+ ?x1916 ?x6308) ?x7004) ?x3398) (and $x5703 (and $x6404 $x6215))))))
 (let ((?x7459 (* 16.0 |v5:12|)))
 (let ((?x6171 (* 5.0 ?x6401)))
 (let ((?x5275 (+ (+ (+ (* 19.0 |v16:1|) (* 11.0 |v1:16|)) (* ?x856 |v5:12|)) (* ?x8846 |v16:1|))))
 (let ((?x9250 (* ?x6937 |v4:13|)))
 (let ((?x2959 (+ (+ (+ (+ (* ?x6152 ?x2014) ?x8970) (* ?x8076 ?x7112)) ?x5943) (* ?x5750 |v13:4|))))
 (let (($x4687 (or (<= (+ (+ ?x2959 ?x9250) ?x280) 2.0) (<= (+ (+ (+ ?x5275 ?x6171) ?x7459) ?x2411) ?x3398))))
 (let ((?x4829 (+ (+ (+ (+ (+ ?x2439 (* 17.0 |v2:15|)) ?x9332) (* ?x3398 |v4:13|)) |v4:13|) ?x4657)))
 (let ((?x6038 (* ?x8076 ?x7112)))
 (let ((?x3493 (* ?x3081 |v1:16|)))
 (let ((?x7741 (+ (+ (+ (+ (* ?x8130 ?x2014) (* ?x5750 |v0:17|)) (* ?x856 ?x6528)) ?x3493) ?x6038)))
 (let (($x7260 (and (and (<= (+ (+ ?x7741 ?x8106) ?x7274) 12.0) (<= (+ ?x4829 ?x3704) 13.0)) $x4687)))
 (let ((?x3533 (* ?x8076 |v2:15|)))
 (let ((?x71 (* 9.0 ?x7054)))
 (let ((?x2379 (* 9.0 |v3:14|)))
 (let ((?x2303 (* ?x7108 |v2:15|)))
 (let ((?x9138 (+ (+ (+ (+ (* ?x2364 |v12:5|) (* ?x856 |v0:17|)) (* ?x7108 |v16:1|)) ?x2303) ?x2379)))
 (let ((?x6111 (* 13.0 |v4:13|)))
 (let ((?x1260 (* ?x8846 ?x6401)))
 (let ((?x2918 (+ (+ (+ (+ (* ?x3398 ?x6528) (* ?x7172 |v0:17|)) (* ?x6828 ?x7845)) ?x1260) (* 11.0 ?x7845))))
 (let (($x4691 (or (<= (+ (+ ?x2918 ?x280) ?x6111) 8.0) (<= (+ (+ ?x9138 ?x71) ?x3533) 9.0))))
 (let ((?x2860 (+ (+ (+ (+ (* ?x7369 ?x2014) ?x6451) (* 10.0 ?x7112)) (* ?x5750 |v1:16|)) ?x35)))
 (let ((?x5959 (* ?x2367 |v5:12|)))
 (let ((?x7656 (* ?x6152 ?x2014)))
 (let ((?x1257 (+ (+ (+ (+ (* ?x6015 ?x6528) (* ?x9102 |v12:5|)) (* 8.0 |v0:17|)) ?x7656) (* ?x7369 |v14:3|))))
 (let (($x611 (or (<= (+ (+ ?x1257 ?x5959) (* ?x4934 |v17:0|)) 8.0) (<= (+ (+ ?x2860 (* ?x2367 ?x7845)) (* ?x2364 ?x6401)) ?x7108))))
 (let ((?x6218 (* 6.0 |v12:5|)))
 (let ((?x7120 (* 20.0 ?x6528)))
 (let ((?x8455 (* 7.0 |v17:0|)))
 (let ((?x910 (+ (+ (+ (+ ?x7671 (* ?x2563 ?x6528)) (* ?x6828 |v13:4|)) (* ?x6152 |v2:15|)) ?x8455)))
 (let ((?x5819 (* ?x4934 ?x7845)))
 (let ((?x6555 (* 15.0 |v13:4|)))
 (let ((?x5204 (+ (+ (+ (* 17.0 |v5:12|) (* 19.0 |v3:14|)) (* ?x7172 ?x6401)) (* ?x2563 ?x6401))))
 (let (($x3094 (and (<= (+ (+ (+ ?x5204 ?x6555) ?x5819) (* ?x9102 ?x7054)) 11.0) (<= (+ (+ ?x910 ?x7120) ?x6218) ?x7172))))
 (let ((?x1291 (+ (+ (+ (+ (* 15.0 |v2:15|) ?x7818) (* 7.0 |v4:13|)) (* 6.0 |v0:17|)) (* ?x8130 |v14:3|))))
 (let ((?x672 (* ?x6828 |v5:12|)))
 (let ((?x7800 (+ (+ (+ (+ (+ ?x5819 (* ?x856 ?x6528)) ?x6218) ?x8241) (* ?x8076 |v4:13|)) ?x9404)))
 (let (($x8133 (and (and (<= (+ ?x7800 ?x672) ?x3081) (<= (+ (+ ?x1291 ?x5959) ?x5413) ?x8076)) $x3094)))
 (let ((?x6311 (* ?x7108 |v16:1|)))
 (let ((?x4541 (* 18.0 ?x2014)))
 (let ((?x1440 (+ (+ (+ (+ (+ (* ?x3398 |v14:3|) (* 5.0 ?x2014)) ?x3474) ?x9049) ?x4541) ?x9137)))
 (let ((?x9004 (* 4.0 |v17:0|)))
 (let ((?x1588 (* ?x856 |v2:15|)))
 (let ((?x4735 (+ (+ (+ (+ ?x5399 (* ?x3081 |v0:17|)) (* 8.0 ?x2014)) (* 4.0 ?x7112)) ?x1588)))
 (let ((?x5322 (* ?x6152 |v15:2|)))
 (let ((?x1024 (+ (+ (+ (+ (+ (* ?x7172 |v15:2|) ?x9019) |v15:2|) (* ?x7108 |v12:5|)) ?x3886) ?x6019)))
 (let ((?x7074 (* 17.0 |v2:15|)))
 (let ((?x4001 (* 10.0 |v0:17|)))
 (let ((?x4318 (+ (+ (+ (+ (+ ?x1062 (* ?x6015 |v16:1|)) (* 17.0 |v12:5|)) ?x5322) ?x4001) ?x672)))
 (let (($x7806 (and (or (<= (+ ?x4318 ?x7074) 1.0) (<= (+ ?x1024 ?x5322) ?x8130)) (or (<= (+ (+ ?x4735 ?x7368) ?x9004) ?x5750) (<= (+ ?x1440 ?x6311) 8.0)))))
 (let (($x9210 (<= (+ (+ (+ (+ (+ (+ ?x7668 ?x8712) ?x2244) ?x8331) ?x847) ?x8117) ?x6535) ?x6152)))
 (let ((?x7094 (* 8.0 |v12:5|)))
 (let ((?x1251 (* ?x2563 |v3:14|)))
 (let ((?x7147 (+ (+ (+ (+ ?x6401 (* ?x6152 |v0:17|)) (* 3.0 |v0:17|)) (* ?x4934 |v4:13|)) ?x1251)))
 (let ((?x8007 (* ?x856 |v3:14|)))
 (let ((?x1682 (* ?x2367 |v2:15|)))
 (let ((?x1136 (+ (+ (+ (+ (+ ?x976 ?x3803) (* ?x3398 |v12:5|)) (* 0.0 |v5:12|)) ?x1682) ?x8007)))
 (let ((?x9410 (+ (+ (+ (+ ?x7770 (* ?x8130 |v15:2|)) (* ?x8130 ?x6401)) (* 19.0 |v15:2|)) (* ?x8130 ?x7112))))
 (let (($x8009 (and (<= (+ (+ ?x9410 (* ?x6152 |v13:4|)) ?x1994) ?x8130) (<= (+ ?x1136 (* ?x8076 |v12:5|)) ?x8846))))
 (let ((?x3359 (* ?x856 ?x6401)))
 (let ((?x727 (* 9.0 |v14:3|)))
 (let ((?x1971 (+ (+ (+ (+ ?x2840 (* 11.0 |v12:5|)) (* 2.0 ?x7112)) (* 18.0 |v12:5|)) ?x727)))
 (let ((?x6344 (* ?x5750 |v16:1|)))
 (let ((?x9085 (* ?x7369 ?x2014)))
 (let ((?x4617 (+ (+ (+ (+ (* ?x2563 |v4:13|) ?x9214) (* 9.0 |v2:15|)) (* ?x7369 |v3:14|)) ?x9085)))
 (let (($x3689 (or (<= (+ (+ ?x4617 (* 10.0 |v17:0|)) ?x6344) ?x6015) (<= (+ (+ ?x1971 ?x7801) ?x3359) ?x9102))))
 (let ((?x2555 (* 10.0 |v16:1|)))
 (let ((?x1156 (* 14.0 |v4:13|)))
 (let ((?x3626 (+ (+ (+ (+ (* 3.0 |v14:3|) (* ?x3081 ?x6528)) ?x1251) (* 0.0 |v1:16|)) ?x1156)))
 (let ((?x7231 (* 20.0 ?x2014)))
 (let ((?x8151 (+ (+ (+ (+ (+ ?x4650 (* ?x8130 |v1:16|)) (* 19.0 ?x2014)) ?x6555) ?x7231) (* ?x3398 ?x7112))))
 (let (($x3842 (or (and (<= (+ ?x8151 ?x8651) ?x2367) (<= (+ (+ ?x3626 ?x2555) ?x577) ?x6937)) $x3689)))
 (let (($x1082 (and $x3842 (or $x8009 (or (<= (+ (+ ?x7147 (* ?x6937 ?x7112)) ?x7094) ?x8130) $x9210)))))
 (let ((?x5143 (* ?x7172 ?x2014)))
 (let ((?x9361 (+ (+ (+ (+ (+ (* ?x8846 ?x7845) ?x70) (* 20.0 ?x6401)) ?x3359) ?x5143) ?x7344)))
 (let ((?x8172 (* 20.0 |v13:4|)))
 (let ((?x3134 (+ (+ (+ (+ ?x7231 (* 19.0 |v13:4|)) (* 4.0 |v14:3|)) (* ?x2579 ?x7112)) ?x4630)))
 (let ((?x2402 (+ (+ (+ (+ (+ (+ ?x7120 (* 13.0 ?x7054)) ?x6344) |v15:2|) ?x8117) ?x7094) ?x6278)))
 (let ((?x7635 (+ (+ (+ (+ (* 7.0 |v2:15|) (* ?x2364 |v12:5|)) ?x2139) (* ?x3081 ?x7845)) ?x8494)))
 (let ((?x1685 (* 18.0 |v17:0|)))
 (let ((?x7661 (+ (+ (+ (+ (* ?x8130 ?x7054) (* 2.0 ?x6401)) (* 14.0 |v14:3|)) |v0:17|) ?x1685)))
 (let (($x4788 (or (<= (+ (+ ?x7661 (* ?x7108 ?x6401)) ?x464) ?x5750) (<= (+ (+ ?x7635 ?x6972) ?x3257) ?x6015))))
 (let (($x5589 (or (and $x4788 (and (<= ?x2402 ?x6015) (<= (+ (+ ?x3134 ?x8172) |v17:0|) 4.0))) (<= (+ ?x9361 ?x1019) ?x2364))))
 (let (($x562 (and (and $x5589 $x1082) (and (or $x7806 $x8133) (or (and $x611 $x4691) $x7260)))))
 (let (($x6132 (or (or $x562 $x5934) (or (and (and $x749 (or (or $x5003 $x545) (or $x4397 $x728))) $x4584) $x2170))))
 (let (($x4184 (not (= |v6:11_st| (RMk1 val!9881)))))
 (let (($x3947 (not (= |v7:10_st| (RMk1 val!9880)))))
 (let (($x3746 (not (= |v8:9_st| (RMk1 val!9879)))))
 (let (($x3505 (not (= |v9:8_st| (RMk1 val!9878)))))
 (let (($x1202 (not (= |v10:7_st| (RMk1 val!9877)))))
 (let (($x2351 (not (= |v11:6_st| (RMk1 val!9876)))))
 (and $x2351 $x1202 $x3505 $x3746 $x3947 $x4184 $x6132)))))))))))))))))))))))))))))))))))))))))))))))))))))))))))))))))))))))))))))))))))))))))))))))))))))))))))))))))))))))))))))))))))))))))))))))))))))))))))))))))))))))))))))))))))))))))))))))))))))))))))))))))))))))))))))))))))))))))))))))))))))))))))))))))))))))))))))))))))))))))))))))))))))))))))))))))))))))))))))))))))))))))))))))))))))))))))))))))))))))))))))))))))))))))))))))))))))))))))))))))))
 )
 )
 )
 )
 )
 )
 )
 )
 )
 )
 )
 )
 )
 )
 )
 )
 )
 )
(check-sat)
